Ti2 Mn1 Al1
1.0
   0.0000    3.1212    3.1212
   3.1212    0.0000    3.1212
   3.1212    3.1212    0.0000
Ti Mn Al
2 1 1
direct
   0.7500000000000000    0.7500000000000000    0.7500000000000000 Ti
   0.5000000000000000    0.5000000000000000    0.5000000000000000 Ti
   0.2500000000000000    0.2500000000000000    0.2500000000000000 Mn
   0.0000000000000000    0.0000000000000000    0.0000000000000000 Al
